50	100	100	100
55	92	84
70	59	83
91	85	90
86	69	93
74	61	88
60	66	72
99	94	54
75	97	57
75	52	94
84	85	99
80	88	67
71	79	53
62	89	50
93	73	80
60	83	70
89	99	79
95	58	78
96	74	60
52	84	81
54	90	82
98	75	66
74	93	86
95	62	80
88	80	78
82	57	53
57	97	58
94	76	83
52	70	86
90	63	81
53	58	76
60	78	90
90	52	84
60	95	65
91	68	62
72	53	98
64	63	67
68	82	99
82	89	68
69	50	69
70	70	80
89	52	88
77	85	70
79	69	50
57	56	71
58	59	99
85	83	94
99	99	69
97	52	53
59	95	65
81	50	83
